% File represents an instance of a Composite Structure problem to be solved by a CP framework
% Created on 2025-03-26 10:41:15.639
T = 50;
n = 9;
m = 12;
edges = [(1, 2),
(4, 5),
(7, 8),
(2, 3),
(5, 6),
(8, 9),
(1, 4),
(4, 7),
(2, 5),
(5, 8),
(3, 6),
(6, 9)];
counts = [|6, 14, 6, 24,
|6, 12, 6, 20,
|6, 12, 6, 16,
|4, 14, 4, 22,
|4, 12, 4, 18,
|4, 10, 4, 16,
|4, 12, 4, 18,
|4, 8, 4, 16,
|4, 8, 4, 12|];
